30
1 0 35
2 0 14
2 1 31
3 0 24
3 1 29
3 2 40
4 0 17
4 1 38
4 2 39
4 3 21
5 0 14
5 1 36
5 2 22
5 3 40
5 4 35
6 0 27
6 1 32
6 2 33
6 3 18
6 4 38
6 5 3
7 0 6
7 1 10
7 2 4
7 3 6
7 4 27
7 5 25
7 6 29
8 0 29
8 1 14
8 2 26
8 3 35
8 4 17
8 5 26
8 6 21
8 7 3
9 0 13
9 1 21
9 2 20
9 3 16
9 4 15
9 5 13
9 6 30
9 7 30
9 8 38
10 0 16
10 1 8
10 2 7
10 3 31
10 4 37
10 5 8
10 6 13
10 7 3
10 8 1
10 9 29
11 0 32
11 1 12
11 2 35
11 3 16
11 4 12
11 5 37
11 6 30
11 7 15
11 8 31
11 9 20
11 10 14
12 0 9
12 1 39
12 2 11
12 3 2
12 4 4
12 5 7
12 6 28
12 7 24
12 8 28
12 9 29
12 10 25
12 11 35
13 0 10
13 1 40
13 2 6
13 3 10
13 4 4
13 5 33
13 6 19
13 7 29
13 8 34
13 9 12
13 10 5
13 11 15
13 12 4
14 0 30
14 1 12
14 2 9
14 3 7
14 4 4
14 5 10
14 6 28
14 7 17
14 8 4
14 9 16
14 10 20
14 11 40
14 12 2
14 13 32
15 0 16
15 1 12
15 2 35
15 3 24
15 4 8
15 5 5
15 6 35
15 7 39
15 8 3
15 9 24
15 10 21
15 11 31
15 12 36
15 13 18
15 14 29
16 0 26
16 1 14
16 2 27
16 3 7
16 4 5
16 5 26
16 6 15
16 7 37
16 8 29
16 9 27
16 10 33
16 11 30
16 12 17
16 13 22
16 14 40
16 15 37
17 0 35
17 1 27
17 2 27
17 3 10
17 4 40
17 5 21
17 6 11
17 7 30
17 8 11
17 9 31
17 10 4
17 11 38
17 12 24
17 13 16
17 14 3
17 15 12
17 16 18
18 0 12
18 1 32
18 2 24
18 3 38
18 4 30
18 5 16
18 6 18
18 7 1
18 8 34
18 9 32
18 10 28
18 11 20
18 12 15
18 13 11
18 14 34
18 15 40
18 16 12
18 17 18
19 0 36
19 1 17
19 2 16
19 3 36
19 4 21
19 5 19
19 6 36
19 7 10
19 8 4
19 9 5
19 10 2
19 11 18
19 12 12
19 13 3
19 14 3
19 15 14
19 16 39
19 17 1
19 18 2
20 0 5
20 1 34
20 2 39
20 3 13
20 4 29
20 5 5
20 6 18
20 7 29
20 8 35
20 9 31
20 10 16
20 11 31
20 12 3
20 13 25
20 14 12
20 15 22
20 16 16
20 17 4
20 18 32
20 19 34
21 0 20
21 1 10
21 2 23
21 3 27
21 4 31
21 5 34
21 6 22
21 7 28
21 8 32
21 9 40
21 10 24
21 11 31
21 12 12
21 13 8
21 14 13
21 15 26
21 16 17
21 17 16
21 18 16
21 19 29
21 20 3
22 0 22
22 1 35
22 2 14
22 3 14
22 4 1
22 5 15
22 6 36
22 7 31
22 8 9
22 9 25
22 10 39
22 11 17
22 12 37
22 13 18
22 14 40
22 15 10
22 16 39
22 17 25
22 18 12
22 19 23
22 20 6
22 21 19
23 0 29
23 1 40
23 2 15
23 3 9
23 4 28
23 5 22
23 6 4
23 7 38
23 8 36
23 9 30
23 10 33
23 11 11
23 12 31
23 13 29
23 14 13
23 15 2
23 16 15
23 17 40
23 18 16
23 19 1
23 20 16
23 21 4
23 22 29
24 0 4
24 1 19
24 2 13
24 3 18
24 4 12
24 5 2
24 6 19
24 7 15
24 8 12
24 9 8
24 10 38
24 11 40
24 12 27
24 13 22
24 14 1
24 15 36
24 16 29
24 17 37
24 18 35
24 19 37
24 20 35
24 21 14
24 22 30
24 23 12
25 0 33
25 1 36
25 2 17
25 3 32
25 4 1
25 5 38
25 6 23
25 7 12
25 8 2
25 9 11
25 10 12
25 11 25
25 12 7
25 13 39
25 14 7
25 15 9
25 16 1
25 17 37
25 18 40
25 19 11
25 20 35
25 21 19
25 22 14
25 23 17
25 24 32
26 0 24
26 1 34
26 2 31
26 3 29
26 4 26
26 5 20
26 6 8
26 7 29
26 8 8
26 9 8
26 10 7
26 11 3
26 12 1
26 13 11
26 14 11
26 15 18
26 16 5
26 17 22
26 18 19
26 19 37
26 20 1
26 21 19
26 22 26
26 23 11
26 24 37
26 25 21
27 0 39
27 1 27
27 2 30
27 3 7
27 4 8
27 5 38
27 6 34
27 7 37
27 8 32
27 9 5
27 10 23
27 11 36
27 12 26
27 13 26
27 14 32
27 15 31
27 16 30
27 17 20
27 18 22
27 19 14
27 20 3
27 21 16
27 22 11
27 23 1
27 24 14
27 25 24
27 26 30
28 0 34
28 1 35
28 2 34
28 3 17
28 4 30
28 5 10
28 6 36
28 7 27
28 8 22
28 9 22
28 10 9
28 11 19
28 12 25
28 13 33
28 14 40
28 15 9
28 16 11
28 17 20
28 18 31
28 19 37
28 20 3
28 21 6
28 22 32
28 23 34
28 24 5
28 25 34
28 26 18
28 27 13
29 0 28
29 1 1
29 2 3
29 3 19
29 4 30
29 5 17
29 6 40
29 7 33
29 8 11
29 9 25
29 10 35
29 11 15
29 12 16
29 13 20
29 14 11
29 15 5
29 16 6
29 17 1
29 18 14
29 19 30
29 20 24
29 21 33
29 22 3
29 23 13
29 24 6
29 25 10
29 26 7
29 27 24
29 28 19
